Maximize
  0 x0 + 0 x1 - 11 x2 + 0 x3 + 0 x4 - 27 x5 + 0 x6 + 0 x7 + 0 x8 - 49 x9
   + 0 x10 + 0 x11 + 0 x12 + 0 x13 + 0 x14 + 0 x15 + 0 x16 - 41 x17 + 0 x18
   + 0 x19 - 13 x20 + 0 x21 + 0 x22 + 0 x23 + 0 x24 + 27 x25 + 0 x26
   + 0 x27 + 0 x28 + 0 x29 + 10 x30 + 0 x31 + 0 x32 + 0 x33 + 0 x34 + 0 x35
   + 0 x36 + 0 x37 + 0 x38 + 0 x39 + 0 x40 + 0 x41 + 0 x42 + 0 x43 - 36 x44
   + 0 x45 + 0 x46 + 0 x47 + 0 x48 + 0 x49 + 0 x50 + 0 x51 + 17 x52 + 0 x53
   - 49 x54 + 0 x55 + 0 x56 + 0 x57 + 35 x58 - 34 x59 + 0 x60 + 0 x61
   + 0 x62 + 0 x63 + 0 x64 + 0 x65 + 0 x66 + 0 x67 + 0 x68 + 0 x69 + [
   - 10 x0 * x3 + 96 x0 * x4 - 76 x0 * x6 + 92 x0 * x9 - 70 x0 * x13
   + 8 x0 * x17 + 76 x0 * x18 - 64 x0 * x21 + 50 x0 * x23 - 36 x0 * x26
   - 40 x0 * x31 + 12 x0 * x32 - 90 x0 * x37 - 56 x0 * x48 + 84 x0 * x51
   - 98 x0 * x56 - 12 x0 * x57 + 2 x0 * x58 - 32 x0 * x65 - 82 x0 * x67
   - 82 x1 * x8 + 46 x1 * x12 - 82 x1 * x14 - 14 x1 * x15 - 82 x1 * x17
   + 2 x1 * x21 + 6 x1 * x25 - 24 x1 * x26 + 2 x1 * x28 + 86 x1 * x32
   + 46 x1 * x37 - 50 x1 * x44 + 36 x1 * x45 - 20 x1 * x51 + 92 x1 * x53
   - 82 x1 * x54 + 42 x1 * x59 - 40 x1 * x64 + 10 x1 * x69 - 12 x2 * x7
   - 96 x2 * x23 - 82 x2 * x35 - 6 x2 * x40 + 76 x2 * x42 - 18 x2 * x52
   + 24 x2 * x61 + 34 x2 * x67 + 22 x3 ^2 - 16 x3 * x4 - 32 x3 * x6
   + 72 x3 * x8 - 2 x3 * x18 + 36 x3 * x19 + 64 x3 * x24 + 64 x3 * x25
   + 72 x3 * x28 - 90 x3 * x30 - 64 x3 * x37 - 60 x3 * x51 - 66 x3 * x55
   + 14 x3 * x66 - 82 x3 * x69 - 54 x4 * x17 + 50 x4 * x21 - 62 x4 * x25
   + 68 x4 * x27 - 36 x4 * x29 + 32 x4 * x33 - 86 x4 * x34 + 56 x4 * x36
   - 16 x4 * x37 + 2 x4 * x47 - 96 x4 * x51 - 28 x4 * x52 + 14 x4 * x53
   + 2 x4 * x55 - 86 x4 * x63 + 10 x4 * x69 + 36 x5 ^2 + 82 x5 * x7
   + 82 x5 * x8 - 50 x5 * x18 + 18 x5 * x22 + 28 x5 * x23 + 26 x5 * x26
   - 42 x5 * x31 + 70 x5 * x32 - 16 x5 * x34 + 68 x5 * x39 - 32 x5 * x40
   + 84 x5 * x42 + 16 x5 * x43 - 70 x5 * x49 + 50 x5 * x63 - 84 x5 * x64
   + 10 x5 * x67 + 66 x6 * x7 - 62 x6 * x11 + 36 x6 * x13 - 50 x6 * x15
   - 14 x6 * x17 - 94 x6 * x18 - 90 x6 * x19 - 26 x6 * x29 + 78 x6 * x31
   + 38 x6 * x32 - 56 x6 * x44 - 76 x6 * x49 + 6 x6 * x50 - 90 x6 * x60
   + 8 x6 * x68 + 20 x7 ^2 + 86 x7 * x8 + 24 x7 * x15 - 14 x7 * x16
   - 98 x7 * x17 - 82 x7 * x27 - 88 x7 * x29 - 36 x7 * x41 - 4 x7 * x44
   + 78 x7 * x46 + 90 x7 * x51 + 82 x7 * x56 - 56 x7 * x59 + 84 x7 * x61
   - 92 x7 * x69 - 12 x8 * x16 - 50 x8 * x26 - 72 x8 * x27 + 78 x8 * x28
   + 94 x8 * x34 - 86 x8 * x36 + 50 x8 * x43 - 8 x8 * x44 - 10 x8 * x48
   - 42 x8 * x52 + 20 x8 * x54 + 6 x8 * x55 - 74 x8 * x56 + 10 x8 * x64
   - 58 x8 * x69 - 34 x9 * x10 - 54 x9 * x12 + 70 x9 * x17 + 2 x9 * x26
   + 90 x9 * x28 - 4 x9 * x36 + 70 x9 * x37 - 54 x9 * x41 - 16 x9 * x43
   + 8 x9 * x44 - 30 x9 * x51 - 14 x9 * x54 - 98 x9 * x55 - 86 x9 * x59
   + 86 x9 * x65 - 94 x9 * x67 + 68 x10 * x12 - 86 x10 * x13 - 10 x10 * x17
   - 36 x10 * x19 + 88 x10 * x25 + 18 x10 * x28 + 16 x10 * x30
   + 50 x10 * x32 - 86 x10 * x47 + 34 x10 * x58 - 12 x10 * x62
   - 98 x10 * x64 + 68 x11 * x13 + 94 x11 * x14 - 18 x11 * x24
   - 2 x11 * x29 - 50 x11 * x30 + 22 x11 * x31 - 74 x11 * x34
   + 40 x11 * x42 - 62 x11 * x43 - 80 x11 * x47 - 48 x11 * x49
   - 62 x11 * x56 + 50 x11 * x58 - 26 x11 * x62 + 2 x11 * x63 - 19 x12 ^2
   - 84 x12 * x16 - 46 x12 * x17 - 16 x12 * x18 + 6 x12 * x20
   - 32 x12 * x21 + 40 x12 * x22 - 38 x12 * x23 - 32 x12 * x37
   - 58 x12 * x46 - 44 x12 * x52 + 66 x12 * x59 - 2 x12 * x60
   + 70 x12 * x63 + 38 x13 * x19 - 82 x13 * x21 - 28 x13 * x25
   + 6 x13 * x30 + 52 x13 * x31 + 50 x13 * x32 + 38 x13 * x33
   + 34 x13 * x40 - 98 x13 * x50 + 96 x13 * x52 - 54 x13 * x54
   + 24 x13 * x61 - 40 x13 * x63 - 48 x13 * x66 + 4 x14 * x24 - 8 x14 * x27
   - 30 x14 * x28 + 48 x14 * x32 + 18 x14 * x36 - 90 x14 * x41
   + 44 x14 * x44 + 2 x14 * x46 + 94 x14 * x52 - 78 x14 * x63
   - 92 x14 * x64 + 4 x14 * x66 - 26 x15 * x18 - 4 x15 * x21 - 50 x15 * x26
   + 28 x15 * x27 - 20 x15 * x28 - 94 x15 * x36 + 24 x15 * x37
   - 80 x15 * x38 + 94 x15 * x41 + 48 x15 * x43 + 80 x15 * x44
   + 66 x15 * x46 + 70 x15 * x48 + 50 x15 * x51 - 74 x15 * x52
   + 68 x15 * x55 + 66 x15 * x56 + 70 x15 * x59 + 10 x15 * x60
   + 80 x15 * x61 - 34 x15 * x67 - 76 x16 * x17 - 48 x16 * x18
   + 56 x16 * x23 - 48 x16 * x24 + 18 x16 * x32 + 10 x16 * x35
   - 92 x16 * x36 - 70 x16 * x42 - 80 x16 * x51 - 86 x16 * x58
   - 92 x16 * x61 - 78 x16 * x65 - 86 x17 * x19 + 20 x17 * x22
   + 94 x17 * x30 - 92 x17 * x31 - 18 x17 * x34 + 70 x17 * x38
   - 82 x17 * x48 + 24 x17 * x49 + 58 x17 * x53 + 34 x17 * x54
   - 14 x17 * x56 - 8 x17 * x60 + 70 x17 * x63 - 72 x17 * x67 + 34 x18 ^2
   - 98 x18 * x19 + 18 x18 * x24 - 14 x18 * x25 - 82 x18 * x29
   - 28 x18 * x31 - 92 x18 * x34 - 60 x18 * x35 - 14 x18 * x37
   + 8 x18 * x41 - 22 x18 * x42 - 14 x18 * x44 + 40 x18 * x47
   - 46 x18 * x49 - 52 x18 * x50 + 24 x19 * x24 + 18 x19 * x25
   + 28 x19 * x31 - 70 x19 * x38 + 92 x19 * x42 - 50 x19 * x44
   + 18 x19 * x45 - 44 x19 * x47 + 2 x19 * x56 - 92 x19 * x60
   + 54 x19 * x62 - 88 x19 * x65 - 88 x20 * x22 + 30 x20 * x23
   - 28 x20 * x25 - 78 x20 * x31 - 28 x20 * x38 + 56 x20 * x44
   + 70 x20 * x46 - 82 x20 * x50 - 68 x20 * x64 - 96 x20 * x67 - 5 x21 ^2
   + 52 x21 * x25 + 64 x21 * x27 + 16 x21 * x28 - 94 x21 * x45
   + 54 x21 * x59 + 86 x21 * x64 - 78 x21 * x69 + 46 x22 ^2 + 74 x22 * x24
   - 92 x22 * x42 + 16 x22 * x55 - 68 x22 * x57 - 24 x22 * x59
   + 76 x22 * x63 + 34 x23 ^2 + 94 x23 * x25 - 90 x23 * x30 - 26 x23 * x40
   - 46 x23 * x42 + 72 x23 * x48 - 64 x23 * x49 + 30 x23 * x54
   - 2 x23 * x56 - 22 x23 * x62 + 20 x24 * x28 + 32 x24 * x31
   + 18 x24 * x34 + 58 x24 * x41 - 98 x24 * x46 - 20 x24 * x53
   + 4 x24 * x56 + 92 x24 * x59 - 82 x24 * x63 - 10 x24 * x69
   + 46 x25 * x27 + 74 x25 * x29 + 14 x25 * x42 - 54 x25 * x46
   - 90 x25 * x47 + 56 x25 * x48 - 86 x25 * x53 - 40 x25 * x55
   + 22 x25 * x57 + 22 x25 * x62 + 24 x26 * x29 + 52 x26 * x33
   - 32 x26 * x34 - 80 x26 * x36 - 34 x26 * x37 - 18 x26 * x42
   - 60 x26 * x44 + 18 x26 * x48 + 94 x26 * x49 + 90 x26 * x52
   + 44 x26 * x61 + 98 x27 * x30 - 28 x27 * x33 - 42 x27 * x38
   - 56 x27 * x39 - 74 x27 * x40 + 42 x27 * x42 - 82 x27 * x48
   - 78 x27 * x49 - 8 x27 * x53 - 16 x27 * x59 - 36 x27 * x62
   - 64 x27 * x63 + 22 x27 * x69 + 28 x28 * x29 - 46 x28 * x34
   + 88 x28 * x36 + 42 x28 * x40 - 46 x28 * x42 - 42 x28 * x44
   - 60 x28 * x45 + 48 x28 * x48 + 86 x28 * x53 - 48 x28 * x57
   - 30 x28 * x63 + 6 x28 * x64 + 16 x28 * x66 + 66 x28 * x67
   - 12 x28 * x68 - 32 x28 * x69 - 70 x29 * x39 - 4 x29 * x42
   + 88 x29 * x45 - 38 x29 * x54 - 82 x29 * x56 - 68 x29 * x68
   - 8 x29 * x69 - 42 x30 * x32 - 60 x30 * x47 - 4 x30 * x56 - 24 x30 * x59
   - 54 x31 * x36 + 50 x31 * x37 + 60 x31 * x45 + 60 x31 * x47
   - 42 x31 * x48 + 74 x31 * x62 + 14 x31 * x64 - 30 x32 * x39
   + 4 x32 * x40 - 54 x32 * x42 - 24 x32 * x48 - 10 x32 * x53
   - 86 x32 * x55 - 50 x32 * x59 - 76 x32 * x61 + 72 x32 * x62
   - 82 x32 * x67 - 12 x32 * x69 + 11 x33 ^2 + 80 x33 * x35 + 58 x33 * x36
   - 12 x33 * x37 - 34 x33 * x42 + 74 x33 * x53 + 16 x33 * x60
   + 96 x33 * x61 - 62 x33 * x62 + 92 x33 * x64 - 18 x34 * x35
   + 52 x34 * x38 + 56 x34 * x51 + 54 x34 * x54 - 88 x34 * x56
   - 10 x34 * x62 - 37 x35 ^2 + 42 x35 * x48 + 96 x35 * x50 - 72 x35 * x51
   + 74 x35 * x54 - 80 x35 * x59 - 54 x35 * x62 - 52 x36 * x39
   + 40 x36 * x41 + 96 x36 * x42 + 56 x36 * x45 + 16 x36 * x47
   + 30 x36 * x52 - 82 x36 * x61 - 78 x36 * x64 + 56 x36 * x68
   - 72 x37 * x45 + 22 x37 * x46 + 28 x37 * x50 + 72 x37 * x56
   - 34 x37 * x57 - 13 x38 ^2 + 62 x38 * x41 - 62 x38 * x47 + 96 x38 * x48
   + 78 x38 * x56 + 18 x38 * x61 + 68 x38 * x64 + 16 x38 * x68
   - 24 x39 * x50 + 94 x39 * x52 - 28 x39 * x54 + 30 x39 * x55
   - 44 x39 * x57 - 58 x39 * x60 + 74 x39 * x61 + 60 x39 * x66
   - 58 x40 * x43 + 26 x40 * x47 + 16 x40 * x49 + 86 x40 * x52
   + 24 x40 * x55 - 96 x40 * x57 - 24 x40 * x58 - 32 x40 * x62
   + 72 x40 * x64 + 42 x40 * x66 + 78 x41 * x42 - 84 x41 * x48
   - 16 x41 * x51 + 52 x41 * x52 + 22 x41 * x60 - 50 x41 * x61
   + 26 x41 * x62 - 6 x41 * x65 + 6 x41 * x66 + 8 x41 * x68 + 60 x42 * x44
   - 46 x42 * x48 + 42 x42 * x68 + 2 x42 * x69 - 26 x43 * x45
   + 58 x43 * x54 - 22 x43 * x57 - 24 x43 * x58 + 22 x43 * x60
   - 10 x43 * x63 + 70 x43 * x66 - 72 x43 * x69 - 2 x44 ^2 + 6 x44 * x46
   + 62 x44 * x58 + 26 x44 * x64 + 16 x44 * x68 - 28 x44 * x69
   - 62 x45 * x50 + 74 x45 * x54 + 44 x45 * x57 + 72 x45 * x58
   - 36 x46 * x47 + 74 x46 * x55 + 18 x46 * x56 - 90 x46 * x57
   + 84 x47 * x55 + 96 x47 * x61 - 10 x47 * x62 + 98 x47 * x64
   + 6 x47 * x66 - 46 x48 * x50 - 72 x48 * x62 - 22 x48 * x68
   + 32 x48 * x69 + 62 x49 * x50 - 30 x49 * x53 + 24 x49 * x56
   + 90 x49 * x62 + 14 x49 * x64 - 88 x49 * x67 - 90 x50 * x51
   + 20 x50 * x52 - 22 x50 * x56 + 90 x50 * x57 - 84 x50 * x60
   + 98 x50 * x61 + 68 x50 * x62 + 32 x50 * x64 - 20 x50 * x66
   + 46 x50 * x67 - 42 x50 * x68 - 18 x51 * x52 - 84 x51 * x54
   - 30 x51 * x68 - 21 x52 ^2 + 74 x52 * x58 - 96 x52 * x59 - 22 x52 * x60
   + 16 x52 * x61 + 38 x52 * x64 + 48 x53 * x57 - 58 x53 * x65
   - 82 x53 * x66 + 98 x53 * x68 + 32 x54 * x55 + 74 x54 * x57
   - 6 x54 * x61 + 24 x54 * x63 + 20 x54 * x67 - 44 x55 * x63
   - 44 x55 * x65 + 88 x56 * x64 - 88 x57 * x58 - 32 x57 * x59
   - 62 x57 * x63 + 2 x58 * x62 - 10 x58 * x63 + 54 x58 * x69
   - 26 x59 * x65 + 16 x60 * x62 - 76 x60 * x69 - 12 x61 * x65
   - 30 x61 * x67 - 20 x61 * x68 - 16 x62 ^2 + 24 x62 * x68 - 4 x62 * x69
   - 42 x63 * x64 + 82 x63 * x67 + 31 x64 ^2 - 4 x64 * x66 - 66 x64 * x67
   - 2 x65 * x68 + 44 x67 ^2 - 8 x69 ^2 ] / 2 
Subject To
Bounds
 x0 <= 1
 x1 <= 1
 x2 <= 1
 x3 <= 1
 x4 <= 1
 x5 <= 1
 x6 <= 1
 x7 <= 1
 x8 <= 1
 x9 <= 1
 x10 <= 1
 x11 <= 1
 x12 <= 1
 x13 <= 1
 x14 <= 1
 x15 <= 1
 x16 <= 1
 x17 <= 1
 x18 <= 1
 x19 <= 1
 x20 <= 1
 x21 <= 1
 x22 <= 1
 x23 <= 1
 x24 <= 1
 x25 <= 1
 x26 <= 1
 x27 <= 1
 x28 <= 1
 x29 <= 1
 x30 <= 1
 x31 <= 1
 x32 <= 1
 x33 <= 1
 x34 <= 1
 x35 <= 1
 x36 <= 1
 x37 <= 1
 x38 <= 1
 x39 <= 1
 x40 <= 1
 x41 <= 1
 x42 <= 1
 x43 <= 1
 x44 <= 1
 x45 <= 1
 x46 <= 1
 x47 <= 1
 x48 <= 1
 x49 <= 1
 x50 <= 1
 x51 <= 1
 x52 <= 1
 x53 <= 1
 x54 <= 1
 x55 <= 1
 x56 <= 1
 x57 <= 1
 x58 <= 1
 x59 <= 1
 x60 <= 1
 x61 <= 1
 x62 <= 1
 x63 <= 1
 x64 <= 1
 x65 <= 1
 x66 <= 1
 x67 <= 1
 x68 <= 1
 x69 <= 1
End
